\ This file has been generated by DOcplex
\ ENCODING=ISO-8859-1
\Problem name: BMW

Minimize
 obj: x_10.468_m10.776 + x_8.407_m10.776 + x_6.345_m10.776 + x_4.284_m10.776
      + x_2.223_m10.776 + x_0.161_m10.776 + x_m1.9_m10.776 + x_m3.962_m10.776
      + x_10.468_8.621 + x_10.468_6.466 + x_10.468_4.31 + x_10.468_2.155
      + x_10.468_0.0 + x_10.468_m2.155 + x_10.468_m4.31 + x_10.468_m6.466
      + x_10.468_m8.621 + x_m6.023_m10.776 + x_m6.023_m8.571 + x_m6.023_m6.365
      + x_m6.023_m4.16 + x_m6.023_m1.954 + x_m6.023_0.251 + x_m6.023_2.456
      + x_m6.023_4.662 + x_m10.468_10.776 + 2 x_10.468_10.776#27
      + x_8.374_10.776 + x_6.281_10.776 + x_4.187_10.776 + x_2.094_10.776
      + x_0.0_10.776 + x_m2.094_10.776 + x_m4.187_10.776 + x_m6.281_10.776
      + x_m8.374_10.776 + x_m10.468_6.867 + x_m8.245_6.867
Subject To
 c1: x_10.468_8.621 + x_10.468_6.466 + x_10.468_4.31 + x_10.468_2.155
     + x_10.468_10.776#27 + x_8.374_10.776 + x_6.281_10.776 + x_4.187_10.776
     + x_2.094_10.776 + x_0.0_10.776 = 1
 c2: x_10.468_8.621 + x_10.468_6.466 + x_10.468_4.31 + x_10.468_2.155
     + x_10.468_10.776#27 + x_8.374_10.776 + x_6.281_10.776 + x_4.187_10.776
     + x_2.094_10.776 + x_0.0_10.776 + x_m2.094_10.776 = 1
 c3: x_10.468_8.621 + x_10.468_6.466 + x_10.468_4.31 + x_10.468_2.155
     + x_10.468_0.0 + x_10.468_m2.155 + x_10.468_10.776#27 + x_8.374_10.776
     + x_6.281_10.776 + x_4.187_10.776 + x_2.094_10.776 = 1
 c4: x_m6.023_4.662 + x_8.374_10.776 + x_6.281_10.776 + x_4.187_10.776
     + x_2.094_10.776 + x_0.0_10.776 + x_m2.094_10.776 + x_m4.187_10.776 = 1
 c5: x_10.468_8.621 + x_10.468_6.466 + x_10.468_4.31 + x_10.468_2.155
     + x_10.468_0.0 + x_8.374_10.776 + x_6.281_10.776 + x_4.187_10.776
     + x_2.094_10.776 + x_0.0_10.776 = 1
 c6: x_10.468_8.621 + x_10.468_6.466 + x_10.468_4.31 + x_10.468_2.155
     + x_10.468_0.0 + x_10.468_m2.155 + x_10.468_m4.31 = 1
 c7: x_m6.023_2.456 + x_m6.023_4.662 + x_4.187_10.776 + x_2.094_10.776
     + x_0.0_10.776 + x_m2.094_10.776 + x_m4.187_10.776 + x_m6.281_10.776
     + x_m8.374_10.776 + x_m8.245_6.867 = 1
 c8: x_m6.023_2.456 + x_m6.023_4.662 + x_6.281_10.776 + x_4.187_10.776
     + x_2.094_10.776 + x_0.0_10.776 + x_m2.094_10.776 = 1
 c9: x_10.468_6.466 + x_10.468_4.31 + x_10.468_2.155 + x_10.468_0.0
     + x_10.468_m2.155 = 1
 c10: x_10.468_4.31 + x_10.468_2.155 + x_10.468_0.0 + x_10.468_m2.155
      + x_10.468_m4.31 + x_10.468_m6.466 + x_10.468_m8.621 = 1
 c11: x_m6.023_0.251 + x_m6.023_2.456 + x_m6.023_4.662 + x_m10.468_10.776
      + x_2.094_10.776 + x_0.0_10.776 + x_m2.094_10.776 + x_m4.187_10.776
      + x_m6.281_10.776 + x_m8.374_10.776 + x_m10.468_6.867 + x_m8.245_6.867 = 
      1
 c12: x_m6.023_m1.954 + x_m6.023_0.251 + x_m6.023_2.456 + x_m6.023_4.662
      + x_2.094_10.776 + x_0.0_10.776 + x_m2.094_10.776 + x_m4.187_10.776
      + x_m6.281_10.776 = 1
 c13: x_m6.023_0.251 + x_m6.023_2.456 + x_m6.023_4.662 = 1
 c14: x_10.468_4.31 + x_10.468_2.155 + x_10.468_0.0 + x_10.468_m2.155
      + x_10.468_m4.31 + x_10.468_m6.466 = 1
 c15: x_10.468_m10.776 + x_8.407_m10.776 + x_6.345_m10.776 + x_4.284_m10.776
      + x_10.468_2.155 + x_10.468_0.0 + x_10.468_m2.155 + x_10.468_m4.31
      + x_10.468_m6.466 + x_10.468_m8.621 = 1
 c16: x_m10.468_10.776 + x_0.0_10.776 + x_m2.094_10.776 + x_m4.187_10.776
      + x_m6.281_10.776 + x_m8.374_10.776 + x_m10.468_6.867 + x_m8.245_6.867 = 
      1
 c17: x_m6.023_m1.954 + x_m6.023_0.251 + x_m6.023_2.456 + x_m6.023_4.662
      + x_0.0_10.776 + x_m2.094_10.776 + x_m4.187_10.776 + x_m6.281_10.776
      + x_m8.374_10.776 = 1
 c18: x_m6.023_m4.16 + x_m6.023_m1.954 + x_m6.023_0.251 + x_m6.023_2.456
      + x_m6.023_4.662 = 1
 c19: x_m6.023_m4.16 + x_m6.023_m1.954 + x_m6.023_0.251 = 1
 c20: x_8.407_m10.776 + x_6.345_m10.776 + x_4.284_m10.776 + x_2.223_m10.776
      + x_0.161_m10.776 + x_10.468_0.0 + x_10.468_m2.155 + x_10.468_m4.31
      + x_10.468_m6.466 + x_10.468_m8.621 = 1
 c21: x_10.468_m10.776 + x_8.407_m10.776 + x_6.345_m10.776 + x_4.284_m10.776
      + x_2.223_m10.776 + x_0.161_m10.776 + x_10.468_0.0 + x_10.468_m2.155
      + x_10.468_m4.31 + x_10.468_m6.466 + x_10.468_m8.621 = 1
 c22: x_m6.023_m4.16 + x_m6.023_m1.954 + x_m6.023_0.251 + x_m6.023_2.456
      + x_m6.023_4.662 = 1
 c23: x_m6.023_m6.365 + x_m6.023_m4.16 + x_m6.023_m1.954 + x_m6.023_0.251
      + x_m6.023_2.456 + x_m6.023_4.662 = 1
 c24: x_6.345_m10.776 + x_4.284_m10.776 + x_2.223_m10.776 + x_0.161_m10.776
      + x_m1.9_m10.776 + x_m6.023_m6.365 + x_m6.023_m4.16 + x_m6.023_m1.954 = 1
 c25: x_10.468_m10.776 + x_8.407_m10.776 + x_6.345_m10.776 + x_4.284_m10.776
      + x_2.223_m10.776 + x_0.161_m10.776 + x_m1.9_m10.776 + x_10.468_m2.155
      + x_10.468_m4.31 + x_10.468_m6.466 + x_10.468_m8.621 = 1
 c26: x_10.468_m10.776 + x_8.407_m10.776 + x_6.345_m10.776 + x_4.284_m10.776
      + x_2.223_m10.776 + x_0.161_m10.776 + x_10.468_m4.31 + x_10.468_m6.466
      + x_10.468_m8.621 = 1
 c27: x_m6.023_m8.571 + x_m6.023_m6.365 + x_m6.023_m4.16 + x_m6.023_m1.954
      + x_m6.023_0.251 + x_m6.023_2.456 + x_m6.023_4.662 = 1
 c28: x_2.223_m10.776 + x_0.161_m10.776 + x_m1.9_m10.776 + x_m3.962_m10.776
      + x_m6.023_m10.776 + x_m6.023_m8.571 + x_m6.023_m6.365 + x_m6.023_m4.16
      + x_m6.023_m1.954 + x_m6.023_0.251 + x_m6.023_2.456 = 1
 c29: x_8.407_m10.776 + x_6.345_m10.776 + x_4.284_m10.776 + x_2.223_m10.776
      + x_0.161_m10.776 + x_m1.9_m10.776 + x_m3.962_m10.776 + x_m6.023_m8.571
      + x_m6.023_m6.365 + x_m6.023_m4.16 = 1
 c30: x_10.468_m10.776 + x_8.407_m10.776 + x_6.345_m10.776 + x_4.284_m10.776
      + x_2.223_m10.776 + x_0.161_m10.776 + x_m1.9_m10.776 + x_10.468_m6.466
      + x_10.468_m8.621 = 1
 c31: x_0.161_m10.776 + x_m1.9_m10.776 + x_m3.962_m10.776 + x_m6.023_m10.776
      + x_m6.023_m8.571 + x_m6.023_m6.365 + x_m6.023_m4.16 + x_m6.023_m1.954
      + x_m6.023_0.251 + x_m6.023_2.456 = 1
 c32: x_4.284_m10.776 + x_2.223_m10.776 + x_0.161_m10.776 + x_m1.9_m10.776
      + x_m3.962_m10.776 + x_m6.023_m10.776 + x_m6.023_m8.571 + x_m6.023_m6.365
      + x_m6.023_m4.16 + x_m6.023_m1.954 = 1
 c33: x_8.407_m10.776 + x_6.345_m10.776 + x_4.284_m10.776 + x_2.223_m10.776
      + x_0.161_m10.776 + x_m1.9_m10.776 + x_m3.962_m10.776 + x_m6.023_m10.776
      + x_m6.023_m8.571 = 1
 c34: x_2.223_m10.776 + x_0.161_m10.776 + x_m1.9_m10.776 + x_m3.962_m10.776
      + x_m6.023_m10.776 + x_m6.023_m8.571 + x_m6.023_m6.365 + x_m6.023_m4.16
      + x_m6.023_m1.954 + x_m6.023_0.251 = 1
 c35: x_6.345_m10.776 + x_4.284_m10.776 + x_2.223_m10.776 + x_0.161_m10.776
      + x_m1.9_m10.776 + x_m3.962_m10.776 + x_m6.023_m10.776 + x_m6.023_m8.571
      + x_m6.023_m6.365 + x_m6.023_m4.16 = 1
 c36: x_2.223_m10.776 + x_0.161_m10.776 + x_m1.9_m10.776 + x_m3.962_m10.776
      + x_m6.023_m10.776 + x_m6.023_m8.571 + x_m6.023_m6.365 + x_m6.023_m4.16
       = 1

Bounds
 0 <= x_10.468_m10.776 <= 1
 0 <= x_8.407_m10.776 <= 1
 0 <= x_6.345_m10.776 <= 1
 0 <= x_4.284_m10.776 <= 1
 0 <= x_2.223_m10.776 <= 1
 0 <= x_0.161_m10.776 <= 1
 0 <= x_m1.9_m10.776 <= 1
 0 <= x_m3.962_m10.776 <= 1
 0 <= x_10.468_10.776 <= 1
 0 <= x_10.468_8.621 <= 1
 0 <= x_10.468_6.466 <= 1
 0 <= x_10.468_4.31 <= 1
 0 <= x_10.468_2.155 <= 1
 0 <= x_10.468_0.0 <= 1
 0 <= x_10.468_m2.155 <= 1
 0 <= x_10.468_m4.31 <= 1
 0 <= x_10.468_m6.466 <= 1
 0 <= x_10.468_m8.621 <= 1
 0 <= x_m6.023_m10.776 <= 1
 0 <= x_m6.023_m8.571 <= 1
 0 <= x_m6.023_m6.365 <= 1
 0 <= x_m6.023_m4.16 <= 1
 0 <= x_m6.023_m1.954 <= 1
 0 <= x_m6.023_0.251 <= 1
 0 <= x_m6.023_2.456 <= 1
 0 <= x_m6.023_4.662 <= 1
 0 <= x_m10.468_10.776 <= 1
 0 <= x_10.468_10.776#27 <= 1
 0 <= x_8.374_10.776 <= 1
 0 <= x_6.281_10.776 <= 1
 0 <= x_4.187_10.776 <= 1
 0 <= x_2.094_10.776 <= 1
 0 <= x_0.0_10.776 <= 1
 0 <= x_m2.094_10.776 <= 1
 0 <= x_m4.187_10.776 <= 1
 0 <= x_m6.281_10.776 <= 1
 0 <= x_m8.374_10.776 <= 1
 0 <= x_m10.468_6.867 <= 1
 0 <= x_m8.245_6.867 <= 1

Binaries
 x_10.468_m10.776 x_8.407_m10.776 x_6.345_m10.776 x_4.284_m10.776
 x_2.223_m10.776 x_0.161_m10.776 x_m1.9_m10.776 x_m3.962_m10.776 x_10.468_10.776
 x_10.468_8.621 x_10.468_6.466 x_10.468_4.31 x_10.468_2.155 x_10.468_0.0
 x_10.468_m2.155 x_10.468_m4.31 x_10.468_m6.466 x_10.468_m8.621 x_m6.023_m10.776
 x_m6.023_m8.571 x_m6.023_m6.365 x_m6.023_m4.16 x_m6.023_m1.954 x_m6.023_0.251
 x_m6.023_2.456 x_m6.023_4.662 x_m10.468_10.776 x_10.468_10.776#27
 x_8.374_10.776 x_6.281_10.776 x_4.187_10.776 x_2.094_10.776 x_0.0_10.776
 x_m2.094_10.776 x_m4.187_10.776 x_m6.281_10.776 x_m8.374_10.776 x_m10.468_6.867
 x_m8.245_6.867
End
